4 4 1 1 111111
15 2 1 3 4 2 2 3 7 4 5 2 2 3 4 3 3 1 4 2 5 4 3 3 1 3 3 7 4 1 2 1 6 3 4 3 1 1 2 1 4 3 2 1 7 4 3 2 1 6 4 5 3 1 3 3 3 4 6 2 1 6 3 3 2 3 4 4 4 2 2 7 3 1 2 1 5 4 3 2 1 3 3 4 
15 2 3 3 4 1 2 1 4 3 3 3 1 6 2 4 3 7 2 1 1 3 3 2 2 3 4 7 2 1 6 2 3 2 1 1 4 3 3 1 5 3 3 4 1 2 1 7 3 2 2 1 4 2 6 2 1 3 2 7 2 2 5 3 1 2 2 1 4 1 2 1 3 3 1 2 1 5 2 3 
15 2 3 6 4 7 2 3 7 4 2 2 2 3 4 1 2 2 5 3 2 2 1 5 4 5 2 1 1 2 5 2 2 4 3 2 2 3 4 4 1 3 1 1 2 2 3 2 2 3 5 4 3 2 2 3 4 7 2 2 5 4 6 2 3 7 4 4 3 2 4 3 1 4 6 2 1 5 4 1 
15 2 3 4 4 7 2 2 4 4 3 3 1 4 2 7 4 3 2 3 3 4 2 2 2 2 3 1 2 2 1 3 4 3 1 2 3 6 4 4 2 2 7 4 3 2 1 6 4 2 2 2 2 3 1 2 2 6 4 6 2 1 7 3 7 2 2 6 4 3 3 1 3 2 1 3 7 2 1 7 4 2 
0 3 1 5 6 
1 0 3 2 4 7 
1 1 1 3 
1 2 1 10 
1 1 1 8 
1 0 1 11 
1 0 2 9 11 
1 1 1 14 
1 4 1 12 
1 6 1 13 
1 3 1 12 
2 5 6 1 14 
2 10 8 0 
1 9 0 
2 11 7 0 
0 3 16 17 18 
1 15 1 20 
1 15 2 21 23 
1 15 2 22 28 
0 1 21 
1 16 1 24 
2 19 17 1 26 
1 18 1 25 
1 17 1 26 
1 20 1 27 
1 22 1 27 
2 21 23 1 27 
3 25 24 26 0 
1 18 1 29 
1 28 0 
0 3 31 43 44 
1 30 1 34 
0 1 35 
0 1 36 
1 31 2 37 39 
1 32 1 38 
1 33 1 38 
1 34 1 40 
2 35 36 1 40 
1 34 1 40 
3 38 37 39 2 41 42 
1 40 0 
1 40 0 
1 30 0 
1 30 0 
0 1 47 
0 3 47 52 53 
2 46 45 1 48 
1 47 1 49 
1 48 1 55 
0 2 51 53 
1 50 1 54 
1 46 1 55 
2 50 46 1 56 
1 51 1 58 
2 49 52 1 59 
1 53 1 57 
1 56 0 
1 54 0 
1 55 0 
